clingo version 5.4.0
Reading from ...s/logs/15_14x14_clingo/knights_tour.lp ...
Solving...
Answer: 1
occ(1,6,8) occ(1,14,5) occ(1,11,9) occ(1,4,10) occ(1,10,7) occ(1,8,3) occ(1,12,5) occ(1,12,6) occ(1,8,7) occ(2,6,4) occ(3,9,11) coverage(6)
Optimization: -6
Answer: 2
occ(1,6,8) occ(1,14,5) occ(1,11,9) occ(1,4,10) occ(1,10,7) occ(1,8,3) occ(1,12,5) occ(1,12,6) occ(1,8,7) occ(2,6,4) occ(3,9,11) coverage(56) occ(19,1,11) occ(23,1,7) occ(27,1,3) occ(28,1,4) occ(32,1,8) occ(33,1,6) occ(36,1,12) occ(37,1,10) occ(40,1,14) occ(46,1,13) occ(50,1,9) occ(54,1,5) occ(12,2,1) occ(21,2,9) occ(25,2,5) occ(26,2,2) occ(30,2,6) occ(31,2,4) occ(34,2,10) occ(35,2,8) occ(42,2,12) occ(43,2,14) occ(48,2,11) occ(52,2,7) occ(14,3,3) occ(17,3,10) occ(29,3,2) occ(38,3,13) occ(39,3,11) occ(44,3,14) occ(45,3,12) occ(10,4,2) occ(24,4,1) occ(41,4,13) occ(47,4,14) occ(6,5,1) occ(15,5,11) occ(16,5,2) occ(8,6,3) occ(22,6,2) occ(49,6,13) occ(87,6,12) occ(93,6,11) occ(145,6,7) occ(4,7,2) occ(13,7,12) occ(18,7,3) occ(85,7,14) occ(91,7,9) occ(95,7,13) occ(147,7,5) occ(153,7,4) occ(20,8,1) occ(51,8,14) occ(79,8,10) occ(83,8,12) occ(89,8,11) occ(143,8,8) occ(151,8,6) occ(155,8,2) occ(11,9,13) occ(77,9,8) occ(97,9,14) occ(125,9,2) occ(141,9,6) occ(149,9,4) occ(167,9,1) occ(53,10,13) occ(73,10,5) occ(81,10,11) occ(129,10,3) occ(139,10,4) occ(157,10,1) occ(5,11,12) occ(9,11,14) occ(75,11,7) occ(99,11,13) occ(113,11,6) occ(117,11,4) occ(123,11,3) occ(127,11,1) occ(131,11,5) occ(165,11,2) occ(55,12,14) occ(61,12,13) occ(65,12,9) occ(71,12,4) occ(107,12,8) occ(121,12,1) occ(137,12,3) occ(159,12,2) occ(7,13,13) occ(57,13,12) occ(63,13,11) occ(69,13,6) occ(101,13,14) occ(105,13,10) occ(111,13,7) occ(115,13,5) occ(119,13,3) occ(133,13,4) occ(163,13,1) occ(59,14,14) occ(67,14,8) occ(103,14,12) occ(109,14,9) occ(135,14,2) occ(161,14,3)
Optimization: -56
Answer: 3
occ(1,6,8) occ(1,14,5) occ(1,11,9) occ(1,4,10) occ(1,10,7) occ(1,8,3) occ(1,12,5) occ(1,12,6) occ(1,8,7) occ(2,6,4) occ(3,9,11) coverage(75) occ(14,1,11) occ(27,1,3) occ(28,1,4) occ(32,1,8) occ(33,1,6) occ(37,1,10) occ(44,1,12) occ(50,1,9) occ(54,1,5) occ(67,1,13) occ(73,1,14) occ(16,2,9) occ(25,2,5) occ(26,2,2) occ(30,2,6) occ(31,2,4) occ(34,2,10) occ(35,2,8) occ(42,2,14) occ(48,2,11) occ(52,2,7) occ(61,2,13) occ(71,2,12) occ(72,2,3) occ(8,3,6) occ(12,3,10) occ(18,3,7) occ(22,3,3) occ(29,3,2) occ(39,3,11) occ(46,3,13) occ(56,3,4) occ(65,3,12) occ(69,3,14) occ(70,3,5) occ(74,3,1) occ(86,3,9) occ(6,4,4) occ(10,4,8) occ(20,4,5) occ(23,4,6) occ(24,4,1) occ(36,4,9) occ(40,4,13) occ(59,4,12) occ(63,4,14) occ(66,4,2) occ(76,4,3) occ(84,4,7) occ(88,4,11) occ(4,5,6) occ(15,5,7) occ(38,5,11) occ(41,5,12) occ(51,5,13) occ(57,5,10) occ(58,5,3) occ(62,5,1) occ(68,5,4) occ(78,5,5) occ(82,5,9) occ(92,5,8) occ(21,6,5) occ(45,6,13) occ(55,6,12) occ(64,6,3) occ(80,6,7) occ(90,6,10) occ(96,6,11) occ(13,7,6) occ(17,7,8) occ(43,7,11) occ(49,7,12) occ(53,7,14) occ(60,7,2) occ(94,7,9) occ(98,7,13) occ(128,7,10) occ(146,7,7) occ(11,8,8) occ(19,8,6) occ(47,8,14) occ(126,8,12) occ(132,8,11) occ(142,8,10) occ(9,9,10) occ(100,9,12) occ(130,9,9) occ(144,9,8) occ(148,9,6) occ(7,10,8) occ(102,10,10) occ(124,10,11) occ(134,10,12) occ(140,10,9) occ(150,10,4) occ(5,11,10) occ(112,11,6) occ(118,11,7) occ(138,11,11) occ(154,11,5) occ(104,12,9) occ(110,12,8) occ(114,12,4) occ(122,12,10) occ(136,12,13) occ(152,12,3) occ(156,12,7) occ(164,12,11) occ(108,13,10) occ(116,13,6) occ(120,13,8) occ(158,13,5) occ(162,13,9) occ(106,14,8) occ(160,14,7) occ(166,14,10)
Optimization: -75
Answer: 4
occ(1,6,8) occ(1,14,5) occ(1,11,9) occ(1,4,10) occ(1,10,7) occ(1,8,3) occ(1,12,5) occ(1,12,6) occ(1,8,7) occ(2,6,4) occ(3,9,11) coverage(115) occ(8,1,6) occ(14,1,11) occ(34,1,7) occ(73,1,8) occ(79,1,9) occ(132,1,14) occ(178,1,1) occ(6,2,4) occ(10,2,8) occ(16,2,9) occ(32,2,5) occ(38,2,10) occ(44,2,13) occ(62,2,6) occ(77,2,11) occ(81,2,7) occ(130,2,12) occ(176,2,3) occ(12,3,10) occ(30,3,3) occ(35,3,11) occ(36,3,8) occ(40,3,12) occ(64,3,4) occ(71,3,7) occ(75,3,9) occ(83,3,5) occ(134,3,13) occ(174,3,1) occ(180,3,2) occ(188,3,6) occ(4,4,5) occ(18,4,8) occ(22,4,4) occ(37,4,13) occ(42,4,14) occ(46,4,12) occ(60,4,7) occ(66,4,2) occ(69,4,9) occ(85,4,3) occ(128,4,11) occ(20,5,6) occ(28,5,4) occ(33,5,10) occ(48,5,14) occ(51,5,13) occ(56,5,8) occ(67,5,11) occ(87,5,1) occ(126,5,9) occ(136,5,12) occ(172,5,2) occ(182,5,3) occ(186,5,5) occ(190,5,7) occ(24,6,3) occ(39,6,14) occ(49,6,11) occ(50,6,12) occ(54,6,10) occ(58,6,6) occ(65,6,13) occ(68,6,1) occ(124,6,7) occ(192,6,5) occ(26,7,5) occ(31,7,9) occ(43,7,11) occ(53,7,12) occ(57,7,14) occ(70,7,3) occ(78,7,7) occ(89,7,2) occ(104,7,6) occ(108,7,10) occ(138,7,13) occ(170,7,1) occ(184,7,4) occ(5,8,9) occ(41,8,13) occ(47,8,10) occ(52,8,11) occ(59,8,12) occ(63,8,14) occ(72,8,1) occ(76,8,5) occ(106,8,8) occ(122,8,6) occ(166,8,4) occ(11,9,7) occ(29,9,10) occ(45,9,12) occ(55,9,13) occ(74,9,3) occ(80,9,8) occ(91,9,1) occ(102,9,5) occ(110,9,9) occ(120,9,4) occ(140,9,14) occ(168,9,2) occ(7,10,8) occ(13,10,9) occ(27,10,12) occ(61,10,13) occ(94,10,10) occ(98,10,6) occ(164,10,3) occ(9,11,6) occ(82,11,7) occ(92,11,12) occ(93,11,2) occ(96,11,8) occ(100,11,4) occ(112,11,10) occ(118,11,5) occ(142,11,13) occ(162,11,1) occ(15,12,10) occ(21,12,11) occ(25,12,13) occ(84,12,9) occ(90,12,14) occ(99,12,2) occ(105,12,7) occ(111,12,12) occ(114,12,8) occ(156,12,3) occ(19,13,13) occ(86,13,11) occ(95,13,3) occ(103,13,5) occ(109,13,10) occ(113,13,14) occ(116,13,6) occ(144,13,12) occ(148,13,8) occ(152,13,4) occ(160,13,2) occ(17,14,11) occ(23,14,12) occ(88,14,13) occ(97,14,1) occ(101,14,3) occ(107,14,8) occ(146,14,10) occ(150,14,6) occ(154,14,2) occ(158,14,4)
Optimization: -115
Answer: 5
occ(1,6,8) occ(1,14,5) occ(1,11,9) occ(1,4,10) occ(1,10,7) occ(1,8,3) occ(1,12,5) occ(1,12,6) occ(1,8,7) occ(2,6,4) occ(3,9,11) coverage(125) occ(12,1,6) occ(36,1,12) occ(47,1,5) occ(51,1,3) occ(114,1,11) occ(123,1,13) occ(132,1,14) occ(138,1,9) occ(174,1,1) occ(6,2,4) occ(10,2,8) occ(34,2,14) occ(38,2,10) occ(45,2,7) occ(53,2,5) occ(112,2,9) occ(116,2,13) occ(130,2,12) occ(136,2,11) occ(142,2,6) occ(172,2,3) occ(8,3,6) occ(14,3,7) occ(40,3,12) occ(43,3,9) occ(49,3,4) occ(83,3,5) occ(110,3,11) occ(121,3,14) occ(124,3,10) occ(134,3,13) occ(140,3,8) occ(170,3,1) occ(176,3,2) occ(4,4,3) occ(16,4,9) occ(32,4,13) occ(55,4,4) occ(72,4,7) occ(79,4,6) occ(118,4,14) occ(119,4,12) occ(128,4,11) occ(144,4,5) occ(148,4,1) occ(18,5,7) occ(41,5,10) occ(42,5,13) occ(70,5,5) occ(77,5,8) occ(81,5,4) occ(85,5,6) occ(108,5,12) occ(122,5,11) occ(126,5,9) occ(146,5,3) occ(168,5,2) occ(178,5,1) occ(30,6,12) occ(46,6,14) occ(57,6,5) occ(68,6,3) occ(71,6,10) occ(74,6,6) occ(117,6,11) occ(120,6,13) occ(150,6,2) occ(188,6,9) occ(20,7,8) occ(28,7,14) occ(39,7,11) occ(44,7,12) occ(59,7,3) occ(75,7,9) occ(76,7,4) occ(87,7,5) occ(106,7,13) occ(109,7,6) occ(166,7,1) occ(180,7,2) occ(186,7,7) occ(22,8,10) occ(35,8,14) occ(48,8,13) occ(63,8,6) occ(66,8,4) occ(69,8,9) occ(73,8,11) occ(78,8,2) occ(111,8,8) occ(115,8,12) occ(152,8,1) occ(184,8,5) occ(26,9,13) occ(37,9,12) occ(58,9,9) occ(61,9,4) occ(62,9,7) occ(65,9,8) occ(89,9,6) occ(104,9,14) occ(107,9,5) occ(113,9,10) occ(164,9,2) occ(182,9,3) occ(5,10,9) occ(23,10,12) occ(24,10,11) occ(33,10,13) occ(50,10,14) occ(64,10,5) occ(67,10,10) occ(80,10,1) occ(91,10,4) occ(105,10,3) occ(154,10,2) occ(9,11,6) occ(25,11,14) occ(29,11,12) occ(56,11,10) occ(60,11,8) occ(82,11,3) occ(93,11,2) occ(102,11,13) occ(162,11,1) occ(7,12,8) occ(13,12,7) occ(21,12,11) occ(31,12,14) occ(52,12,13) occ(92,12,9) occ(98,12,10) occ(99,12,2) occ(103,12,4) occ(156,12,3) occ(11,13,5) occ(17,13,10) occ(27,13,13) occ(54,13,11) occ(84,13,4) occ(88,13,8) occ(94,13,7) occ(95,13,3) occ(100,13,12) occ(160,13,2) occ(15,14,8) occ(19,14,12) occ(86,14,6) occ(90,14,10) occ(96,14,9) occ(97,14,1) occ(101,14,3) occ(158,14,4)
Optimization: -125
Answer: 6
occ(1,6,8) occ(1,14,5) occ(1,11,9) occ(1,4,10) occ(1,10,7) occ(1,8,3) occ(1,12,5) occ(1,12,6) occ(1,8,7) occ(2,6,4) occ(3,9,11) coverage(133) occ(12,1,6) occ(36,1,12) occ(47,1,5) occ(51,1,3) occ(59,1,7) occ(63,1,11) occ(132,1,14) occ(138,1,9) occ(6,2,4) occ(10,2,8) occ(34,2,14) occ(38,2,10) occ(45,2,7) occ(53,2,1) occ(57,2,5) occ(61,2,9) occ(65,2,13) occ(130,2,12) occ(136,2,11) occ(142,2,6) occ(176,2,3) occ(8,3,6) occ(14,3,7) occ(40,3,12) occ(43,3,9) occ(49,3,4) occ(55,3,3) occ(67,3,11) occ(83,3,5) occ(124,3,10) occ(134,3,13) occ(140,3,8) occ(4,4,3) occ(16,4,9) occ(32,4,13) occ(46,4,12) occ(72,4,7) occ(79,4,6) occ(128,4,11) occ(144,4,5) occ(148,4,1) occ(174,4,2) occ(178,4,4) occ(18,5,7) occ(41,5,10) occ(42,5,13) occ(48,5,14) occ(69,5,12) occ(70,5,5) occ(77,5,8) occ(81,5,4) occ(85,5,6) occ(122,5,11) occ(126,5,9) occ(146,5,3) occ(30,6,12) occ(37,6,13) occ(44,6,11) occ(68,6,3) occ(71,6,10) occ(74,6,6) occ(118,6,14) occ(150,6,2) occ(172,6,1) occ(180,6,5) occ(184,6,7) occ(188,6,9) occ(20,7,8) occ(28,7,14) occ(39,7,11) occ(50,7,13) occ(64,7,6) occ(75,7,9) occ(78,7,7) occ(87,7,5) occ(108,7,10) occ(120,7,12) occ(168,7,4) occ(5,8,9) occ(22,8,10) occ(35,8,14) occ(66,8,4) occ(73,8,11) occ(76,8,5) occ(106,8,12) occ(116,8,13) occ(152,8,1) occ(170,8,2) occ(182,8,6) occ(186,8,8) occ(26,9,13) occ(52,9,12) occ(62,9,7) occ(80,9,8) occ(89,9,6) occ(104,9,14) occ(110,9,9) occ(111,9,3) occ(117,9,4) occ(166,9,5) occ(7,10,8) occ(24,10,11) occ(33,10,13) occ(58,10,10) occ(91,10,4) occ(97,10,5) occ(109,10,1) occ(114,10,12) occ(115,10,6) occ(125,10,9) occ(154,10,2) occ(164,10,3) occ(9,11,6) occ(29,11,12) occ(54,11,11) occ(60,11,8) occ(82,11,7) occ(93,11,2) occ(99,11,3) occ(102,11,13) occ(112,11,10) occ(113,11,4) occ(119,11,5) occ(162,11,1) occ(13,12,7) occ(21,12,11) occ(31,12,14) occ(56,12,9) occ(92,12,13) occ(95,12,4) occ(98,12,12) occ(101,12,1) occ(107,12,2) occ(123,12,8) occ(127,12,10) occ(156,12,3) occ(11,13,5) occ(17,13,10) occ(23,13,9) occ(27,13,13) occ(84,13,8) occ(88,13,12) occ(94,13,11) occ(100,13,14) occ(103,13,3) occ(121,13,6) occ(131,13,7) occ(160,13,2) occ(15,14,8) occ(19,14,12) occ(25,14,11) occ(86,14,10) occ(90,14,14) occ(96,14,13) occ(105,14,1) occ(129,14,9) occ(158,14,4)
Optimization: -133
Answer: 7
occ(1,6,8) occ(1,14,5) occ(1,11,9) occ(1,4,10) occ(1,10,7) occ(1,8,3) occ(1,12,5) occ(1,12,6) occ(1,8,7) occ(2,6,4) occ(3,9,11) coverage(159) occ(12,1,6) occ(22,1,3) occ(49,1,12) occ(89,1,4) occ(131,1,5) occ(135,1,7) occ(139,1,11) occ(154,1,13) occ(158,1,9) occ(10,2,4) occ(14,2,8) occ(20,2,5) occ(24,2,1) occ(47,2,14) occ(87,2,2) occ(91,2,6) occ(95,2,10) occ(129,2,7) occ(137,2,9) occ(150,2,12) occ(156,2,11) occ(8,3,2) occ(18,3,7) occ(51,3,13) occ(93,3,8) occ(108,3,4) occ(126,3,3) occ(127,3,9) occ(133,3,6) occ(141,3,12) occ(148,3,10) occ(151,3,5) occ(152,3,14) occ(6,4,4) occ(16,4,9) occ(26,4,2) occ(45,4,13) occ(85,4,1) occ(97,4,11) occ(106,4,6) occ(123,4,8) occ(124,4,5) occ(146,4,12) occ(149,4,7) occ(153,4,3) occ(4,5,6) occ(44,5,4) occ(53,5,12) occ(83,5,3) occ(99,5,13) occ(104,5,8) occ(110,5,5) occ(122,5,7) occ(125,5,10) occ(128,5,2) occ(143,5,11) occ(147,5,9) occ(28,6,3) occ(43,6,14) occ(46,6,6) occ(57,6,11) occ(86,6,10) occ(121,6,7) occ(140,6,9) occ(144,6,13) occ(155,6,2) occ(30,7,1) occ(42,7,5) occ(48,7,8) occ(55,7,13) occ(81,7,2) occ(101,7,12) occ(102,7,7) occ(112,7,4) occ(119,7,9) occ(120,7,6) occ(130,7,3) occ(142,7,11) occ(145,7,10) occ(7,8,12) occ(41,8,13) occ(50,8,6) occ(59,8,10) occ(84,8,11) occ(88,8,9) occ(132,8,5) occ(138,8,8) occ(157,8,1) occ(9,9,14) occ(32,9,2) occ(35,9,9) occ(40,9,4) occ(79,9,1) occ(80,9,12) occ(100,9,8) occ(103,9,13) occ(114,9,3) occ(117,9,10) occ(118,9,5) occ(136,9,6) occ(5,10,13) occ(36,10,3) occ(39,10,12) occ(52,10,5) occ(61,10,9) occ(78,10,14) occ(82,10,10) occ(90,10,8) occ(134,10,4) occ(11,11,13) occ(33,11,8) occ(34,11,1) occ(37,11,10) occ(38,11,5) occ(54,11,3) occ(77,11,2) occ(92,11,6) occ(98,11,7) occ(105,11,12) occ(115,11,11) occ(116,11,4) occ(15,12,12) occ(19,12,14) occ(25,12,11) occ(56,12,1) occ(62,12,2) occ(63,12,10) occ(68,12,7) occ(73,12,3) occ(76,12,13) occ(94,12,4) occ(113,12,9) occ(13,13,14) occ(21,13,12) occ(27,13,13) occ(31,13,9) occ(58,13,3) occ(65,13,8) occ(66,13,5) occ(69,13,4) occ(72,13,10) occ(75,13,1) occ(96,13,6) occ(107,13,11) occ(111,13,7) occ(17,14,13) occ(23,14,10) occ(29,14,11) occ(60,14,1) occ(64,14,3) occ(67,14,6) occ(70,14,8) occ(71,14,2) occ(74,14,12) occ(109,14,9)
Optimization: -159
Answer: 8
occ(1,6,8) occ(1,14,5) occ(1,11,9) occ(1,4,10) occ(1,10,7) occ(1,8,3) occ(1,12,5) occ(1,12,6) occ(1,8,7) occ(2,6,4) occ(3,9,11) coverage(161) occ(12,1,6) occ(22,1,3) occ(49,1,12) occ(89,1,4) occ(131,1,5) occ(135,1,7) occ(139,1,11) occ(154,1,13) occ(160,1,14) occ(10,2,4) occ(14,2,8) occ(20,2,5) occ(24,2,1) occ(47,2,14) occ(87,2,2) occ(91,2,6) occ(95,2,10) occ(129,2,7) occ(137,2,9) occ(150,2,12) occ(156,2,11) occ(8,3,2) occ(18,3,7) occ(51,3,11) occ(93,3,8) occ(108,3,4) occ(126,3,3) occ(127,3,9) occ(133,3,6) occ(141,3,12) occ(148,3,10) occ(151,3,5) occ(152,3,14) occ(158,3,13) occ(6,4,4) occ(16,4,9) occ(26,4,2) occ(45,4,13) occ(85,4,1) occ(97,4,11) occ(106,4,6) occ(123,4,8) occ(124,4,5) occ(146,4,12) occ(149,4,7) occ(153,4,3) occ(4,5,6) occ(44,5,4) occ(53,5,12) occ(83,5,3) occ(99,5,13) occ(104,5,8) occ(110,5,5) occ(122,5,7) occ(125,5,10) occ(128,5,2) occ(143,5,11) occ(147,5,9) occ(28,6,3) occ(43,6,14) occ(46,6,6) occ(57,6,11) occ(86,6,10) occ(121,6,7) occ(140,6,9) occ(144,6,13) occ(155,6,2) occ(30,7,1) occ(42,7,5) occ(48,7,8) occ(55,7,13) occ(81,7,2) occ(101,7,12) occ(102,7,7) occ(112,7,4) occ(119,7,9) occ(120,7,6) occ(130,7,3) occ(142,7,11) occ(145,7,10) occ(7,8,12) occ(41,8,13) occ(50,8,6) occ(59,8,10) occ(84,8,11) occ(88,8,9) occ(132,8,5) occ(138,8,8) occ(157,8,1) occ(9,9,14) occ(32,9,2) occ(35,9,9) occ(40,9,4) occ(79,9,1) occ(80,9,12) occ(100,9,8) occ(103,9,13) occ(114,9,3) occ(117,9,10) occ(118,9,5) occ(136,9,6) occ(5,10,13) occ(36,10,3) occ(39,10,12) occ(52,10,5) occ(61,10,9) occ(78,10,14) occ(82,10,10) occ(90,10,8) occ(134,10,4) occ(159,10,2) occ(11,11,13) occ(33,11,8) occ(34,11,1) occ(37,11,10) occ(38,11,5) occ(54,11,3) occ(77,11,2) occ(92,11,6) occ(98,11,7) occ(105,11,12) occ(115,11,11) occ(116,11,4) occ(15,12,12) occ(19,12,14) occ(25,12,11) occ(56,12,1) occ(62,12,2) occ(63,12,10) occ(68,12,7) occ(73,12,3) occ(76,12,13) occ(94,12,4) occ(113,12,9) occ(13,13,14) occ(21,13,12) occ(27,13,13) occ(31,13,9) occ(58,13,3) occ(65,13,8) occ(66,13,5) occ(69,13,4) occ(72,13,10) occ(75,13,1) occ(96,13,6) occ(107,13,11) occ(111,13,7) occ(17,14,13) occ(23,14,10) occ(29,14,11) occ(60,14,1) occ(64,14,3) occ(67,14,6) occ(70,14,8) occ(71,14,2) occ(74,14,12) occ(109,14,9)
Optimization: -161
Answer: 9
occ(1,6,8) occ(1,14,5) occ(1,11,9) occ(1,4,10) occ(1,10,7) occ(1,8,3) occ(1,12,5) occ(1,12,6) occ(1,8,7) occ(2,6,4) occ(3,9,11) coverage(164) occ(14,1,3) occ(34,1,13) occ(39,1,11) occ(40,1,10) occ(100,1,2) occ(106,1,5) occ(110,1,9) occ(116,1,6) occ(117,1,12) occ(12,2,1) occ(16,2,5) occ(32,2,11) occ(37,2,13) occ(38,2,12) occ(41,2,9) occ(67,2,10) occ(94,2,2) occ(102,2,4) occ(108,2,7) occ(114,2,8) occ(119,2,14) occ(36,3,14) occ(42,3,9) occ(43,3,11) occ(46,3,7) occ(69,3,8) occ(92,3,4) occ(98,3,3) occ(104,3,6) occ(112,3,10) occ(115,3,13) occ(118,3,5) occ(151,3,1) occ(10,4,2) occ(17,4,9) occ(18,4,4) occ(22,4,8) occ(30,4,12) occ(35,4,14) occ(48,4,5) occ(65,4,11) occ(71,4,6) occ(96,4,1) occ(120,4,7) occ(121,4,13) occ(153,4,3) occ(6,5,1) occ(15,5,11) occ(20,5,6) occ(23,5,7) occ(26,5,9) occ(33,5,12) occ(44,5,8) occ(45,5,10) occ(50,5,3) occ(63,5,13) occ(73,5,4) occ(90,5,5) occ(113,5,14) occ(149,5,2) occ(8,6,3) occ(13,6,13) occ(19,6,10) occ(24,6,7) occ(25,6,9) occ(28,6,11) occ(52,6,5) occ(111,6,12) occ(122,6,6) occ(123,6,14) occ(155,6,2) occ(4,7,2) occ(21,7,8) occ(27,7,7) occ(31,7,11) occ(47,7,9) occ(51,7,13) occ(57,7,14) occ(61,7,12) occ(75,7,5) occ(88,7,6) occ(109,7,10) occ(124,7,4) occ(143,7,3) occ(147,7,1) occ(11,8,14) occ(29,8,9) occ(49,8,11) occ(54,8,6) occ(55,8,12) occ(86,8,8) occ(125,8,13) occ(126,8,2) occ(141,8,5) occ(142,8,10) occ(157,8,1) occ(53,9,14) occ(56,9,4) occ(59,9,13) occ(72,9,12) occ(77,9,6) occ(82,9,7) occ(83,9,1) occ(107,9,9) occ(129,9,10) occ(139,9,3) occ(140,9,8) occ(145,9,2) occ(9,10,13) occ(70,10,14) occ(74,10,10) occ(79,10,4) occ(84,10,9) occ(85,10,3) occ(127,10,12) occ(128,10,1) occ(131,10,8) occ(137,10,5) occ(138,10,6) occ(144,10,11) occ(159,10,2) occ(5,11,12) occ(58,11,5) occ(76,11,8) occ(80,11,6) occ(81,11,2) occ(91,11,3) occ(105,11,10) occ(135,11,7) occ(136,11,4) occ(150,11,13) occ(154,11,11) occ(163,11,1) occ(7,12,14) occ(60,12,7) occ(64,12,11) occ(68,12,13) occ(87,12,4) occ(99,12,10) occ(130,12,2) occ(133,12,9) occ(146,12,12) occ(161,12,3) occ(162,12,8) occ(62,13,9) occ(78,13,7) occ(89,13,2) occ(93,13,4) occ(97,13,8) occ(103,13,11) occ(134,13,3) occ(148,13,14) occ(152,13,12) occ(156,13,10) occ(160,13,6) occ(66,14,12) occ(95,14,6) occ(101,14,9) occ(132,14,1) occ(158,14,8)
Optimization: -164
Answer: 10
occ(1,6,8) occ(1,14,5) occ(1,11,9) occ(1,4,10) occ(1,10,7) occ(1,8,3) occ(1,12,5) occ(1,12,6) occ(1,8,7) occ(2,6,4) occ(3,9,11) coverage(171) occ(12,1,2) occ(26,1,9) occ(52,1,14) occ(60,1,12) occ(64,1,10) occ(111,1,11) occ(130,1,5) occ(138,1,3) occ(169,1,4) occ(10,2,4) occ(22,2,6) occ(28,2,11) occ(34,2,8) occ(54,2,12) occ(58,2,14) occ(75,2,10) occ(109,2,9) occ(113,2,13) occ(128,2,7) occ(132,2,3) occ(136,2,1) occ(140,2,5) occ(167,2,2) occ(8,3,2) occ(14,3,1) occ(18,3,3) occ(24,3,8) occ(32,3,10) occ(50,3,13) occ(62,3,11) occ(66,3,9) occ(77,3,12) occ(107,3,7) occ(126,3,5) occ(144,3,4) occ(148,3,6) occ(6,4,4) occ(20,4,5) occ(30,4,12) occ(36,4,7) occ(56,4,13) occ(73,4,9) occ(84,4,11) occ(115,4,14) occ(134,4,2) occ(142,4,6) occ(150,4,8) occ(161,4,3) occ(165,4,1) occ(4,5,6) occ(16,5,2) occ(48,5,12) occ(67,5,3) occ(68,5,10) occ(71,5,7) occ(79,5,11) occ(83,5,13) occ(86,5,9) occ(105,5,8) occ(124,5,4) occ(146,5,5) occ(159,5,1) occ(13,6,11) occ(38,6,6) occ(69,6,5) occ(70,6,12) occ(82,6,10) occ(88,6,7) occ(117,6,13) occ(152,6,9) occ(157,6,3) occ(163,6,2) occ(11,7,9) occ(40,7,8) occ(46,7,13) occ(65,7,2) occ(78,7,11) occ(81,7,12) occ(85,7,14) occ(92,7,4) occ(103,7,7) occ(106,7,3) occ(122,7,5) occ(153,7,6) occ(15,8,10) occ(44,8,11) occ(72,8,13) occ(80,8,9) occ(87,8,12) occ(90,8,6) occ(94,8,2) occ(104,8,1) occ(108,8,5) occ(119,8,14) occ(154,8,8) occ(155,8,4) occ(9,9,10) occ(23,9,7) occ(42,9,9) occ(63,9,3) occ(76,9,12) occ(89,9,14) occ(95,9,13) occ(101,9,8) occ(120,9,4) occ(147,9,1) occ(151,9,5) occ(156,9,6) occ(7,10,8) occ(17,10,9) occ(25,10,5) occ(74,10,14) occ(91,10,12) occ(96,10,1) occ(99,10,10) occ(102,10,2) occ(110,10,6) occ(121,10,13) occ(149,10,3) occ(158,10,4) occ(5,11,10) occ(21,11,8) occ(27,11,7) occ(39,11,11) occ(47,11,13) occ(61,11,4) occ(93,11,14) occ(97,11,12) occ(98,11,3) occ(118,11,5) occ(139,11,1) occ(145,11,2) occ(160,11,6) occ(19,12,10) occ(29,12,9) occ(37,12,13) occ(49,12,11) occ(100,12,1) occ(112,12,7) occ(123,12,12) occ(131,12,8) occ(141,12,3) occ(162,12,4) occ(166,12,2) occ(33,13,12) occ(41,13,10) occ(45,13,14) occ(51,13,13) occ(55,13,9) occ(59,13,5) occ(116,13,4) occ(127,13,11) occ(133,13,6) occ(137,13,2) occ(143,13,1) occ(170,13,3) occ(31,14,10) occ(35,14,14) occ(43,14,12) occ(53,14,11) occ(57,14,7) occ(114,14,6) occ(125,14,13) occ(129,14,9) occ(135,14,4) occ(164,14,3) occ(168,14,1)
Optimization: -171
Answer: 11
occ(1,6,8) occ(1,14,5) occ(1,11,9) occ(1,4,10) occ(1,10,7) occ(1,8,3) occ(1,12,5) occ(1,12,6) occ(1,8,7) occ(2,6,4) occ(3,9,11) coverage(172) occ(12,1,2) occ(26,1,9) occ(52,1,14) occ(60,1,12) occ(64,1,10) occ(111,1,11) occ(130,1,5) occ(138,1,3) occ(10,2,4) occ(22,2,6) occ(28,2,11) occ(34,2,8) occ(54,2,12) occ(58,2,14) occ(75,2,10) occ(109,2,9) occ(113,2,13) occ(128,2,7) occ(132,2,3) occ(136,2,1) occ(140,2,5) occ(167,2,2) occ(8,3,2) occ(14,3,1) occ(18,3,3) occ(24,3,8) occ(32,3,10) occ(50,3,13) occ(62,3,11) occ(66,3,9) occ(77,3,12) occ(107,3,7) occ(126,3,5) occ(144,3,4) occ(148,3,6) occ(6,4,4) occ(20,4,5) occ(30,4,12) occ(36,4,7) occ(56,4,13) occ(73,4,9) occ(84,4,11) occ(115,4,14) occ(134,4,2) occ(142,4,6) occ(150,4,8) occ(165,4,3) occ(169,4,1) occ(4,5,6) occ(16,5,2) occ(48,5,12) occ(67,5,3) occ(68,5,10) occ(71,5,7) occ(79,5,11) occ(83,5,13) occ(86,5,9) occ(105,5,8) occ(124,5,4) occ(146,5,5) occ(163,5,1) occ(13,6,11) occ(38,6,6) occ(69,6,5) occ(70,6,12) occ(82,6,10) occ(88,6,7) occ(117,6,13) occ(152,6,9) occ(161,6,3) occ(171,6,2) occ(11,7,9) occ(40,7,8) occ(46,7,13) occ(65,7,2) occ(78,7,11) occ(81,7,12) occ(85,7,14) occ(92,7,4) occ(103,7,7) occ(106,7,3) occ(122,7,5) occ(153,7,6) occ(159,7,1) occ(15,8,10) occ(44,8,11) occ(72,8,13) occ(80,8,9) occ(87,8,12) occ(90,8,6) occ(94,8,2) occ(104,8,1) occ(108,8,5) occ(119,8,14) occ(154,8,8) occ(155,8,4) occ(9,9,10) occ(23,9,7) occ(42,9,9) occ(63,9,3) occ(76,9,12) occ(89,9,14) occ(95,9,13) occ(101,9,8) occ(120,9,4) occ(147,9,1) occ(151,9,5) occ(156,9,6) occ(157,9,2) occ(7,10,8) occ(17,10,9) occ(25,10,5) occ(74,10,14) occ(91,10,12) occ(96,10,1) occ(99,10,10) occ(102,10,2) occ(110,10,6) occ(121,10,13) occ(149,10,3) occ(158,10,4) occ(5,11,10) occ(21,11,8) occ(27,11,7) occ(39,11,11) occ(47,11,13) occ(61,11,4) occ(93,11,14) occ(97,11,12) occ(98,11,3) occ(118,11,5) occ(139,11,1) occ(145,11,2) occ(160,11,6) occ(19,12,10) occ(29,12,9) occ(37,12,13) occ(49,12,11) occ(100,12,1) occ(112,12,7) occ(123,12,12) occ(131,12,8) occ(141,12,3) occ(162,12,4) occ(166,12,2) occ(33,13,12) occ(41,13,10) occ(45,13,14) occ(51,13,13) occ(55,13,9) occ(59,13,5) occ(116,13,4) occ(127,13,11) occ(133,13,6) occ(137,13,2) occ(143,13,1) occ(170,13,3) occ(31,14,10) occ(35,14,14) occ(43,14,12) occ(53,14,11) occ(57,14,7) occ(114,14,6) occ(125,14,13) occ(129,14,9) occ(135,14,4) occ(164,14,3) occ(168,14,1)
Optimization: -172
Answer: 12
occ(1,6,8) occ(1,14,5) occ(1,11,9) occ(1,4,10) occ(1,10,7) occ(1,8,3) occ(1,12,5) occ(1,12,6) occ(1,8,7) occ(2,6,4) occ(3,9,11) coverage(173) occ(8,1,4) occ(14,1,3) occ(18,1,5) occ(22,1,1) occ(32,1,2) occ(36,1,6) occ(91,1,9) occ(95,1,7) occ(120,1,10) occ(153,1,12) occ(156,1,8) occ(166,1,13) occ(170,1,11) occ(6,2,6) occ(12,2,1) occ(20,2,3) occ(34,2,4) occ(43,2,2) occ(97,2,5) occ(118,2,8) occ(122,2,12) occ(133,2,13) occ(155,2,14) occ(158,2,10) occ(164,2,11) occ(172,2,9) occ(10,3,3) occ(16,3,4) occ(24,3,2) occ(30,3,1) occ(33,3,6) occ(38,3,5) occ(89,3,10) occ(93,3,8) occ(124,3,14) occ(151,3,13) occ(154,3,7) occ(162,3,9) occ(168,3,12) occ(4,4,5) occ(26,4,4) occ(41,4,1) occ(42,4,8) occ(45,4,3) occ(99,4,6) occ(103,4,2) occ(116,4,7) occ(131,4,12) occ(135,4,14) occ(152,4,9) occ(157,4,13) occ(160,4,11) occ(27,5,11) occ(28,5,2) occ(31,5,7) occ(35,5,5) occ(40,5,6) occ(44,5,10) occ(47,5,1) occ(87,5,9) occ(101,5,4) occ(107,5,3) occ(112,5,8) occ(126,5,13) occ(145,5,12) occ(149,5,14) occ(21,6,7) occ(29,6,9) occ(39,6,2) occ(49,6,3) occ(105,6,1) occ(114,6,6) occ(117,6,5) occ(129,6,11) occ(137,6,13) occ(143,6,14) occ(150,6,10) occ(159,6,12) occ(5,7,12) occ(19,7,5) occ(25,7,10) occ(37,7,4) occ(46,7,9) occ(81,7,6) occ(85,7,8) occ(109,7,2) occ(110,7,7) occ(115,7,3) occ(128,7,14) occ(139,7,11) occ(147,7,13) occ(7,8,14) occ(23,8,8) occ(51,8,2) occ(74,8,12) occ(113,8,5) occ(119,8,4) occ(123,8,6) occ(127,8,10) occ(141,8,13) occ(148,8,9) occ(161,8,11) occ(9,9,12) occ(17,9,4) occ(48,9,10) occ(73,9,2) occ(76,9,14) occ(79,9,5) occ(83,9,7) occ(108,9,6) occ(111,9,3) occ(125,9,8) occ(130,9,13) occ(163,9,9) occ(11,10,10) occ(15,10,6) occ(53,10,3) occ(66,10,14) occ(72,10,13) occ(75,10,4) occ(78,10,12) occ(84,10,9) occ(121,10,5) occ(146,10,8) occ(165,10,11) occ(13,11,8) occ(50,11,11) occ(68,11,12) occ(71,11,3) occ(77,11,6) occ(80,11,10) occ(100,11,2) occ(106,11,5) occ(132,11,14) occ(142,11,7) occ(167,11,13) occ(55,12,2) occ(58,12,12) occ(61,12,1) occ(64,12,13) occ(65,12,3) occ(70,12,14) occ(82,12,8) occ(86,12,10) occ(102,12,4) occ(136,12,11) occ(144,12,9) occ(52,13,10) occ(56,13,14) occ(59,13,3) occ(62,13,11) occ(69,13,2) occ(90,13,9) occ(94,13,5) occ(98,13,1) occ(104,13,6) occ(134,13,13) occ(140,13,8) occ(169,13,12) occ(54,14,12) occ(57,14,1) occ(60,14,13) occ(63,14,2) occ(67,14,4) occ(88,14,11) occ(92,14,7) occ(96,14,3) occ(138,14,10) occ(171,14,14)
Optimization: -173
Answer: 13
occ(1,6,8) occ(1,14,5) occ(1,11,9) occ(1,4,10) occ(1,10,7) occ(1,8,3) occ(1,12,5) occ(1,12,6) occ(1,8,7) occ(2,6,4) occ(3,9,11) coverage(175) occ(14,1,9) occ(27,1,1) occ(33,1,2) occ(34,1,13) occ(37,1,6) occ(40,1,8) occ(43,1,7) occ(47,1,11) occ(71,1,3) occ(85,1,10) occ(8,2,7) occ(16,2,11) occ(29,2,3) occ(35,2,4) occ(38,2,10) occ(41,2,5) occ(42,2,6) occ(45,2,9) occ(49,2,13) occ(73,2,1) occ(83,2,8) occ(127,2,12) occ(147,2,2) occ(12,3,8) occ(18,3,13) occ(25,3,2) occ(31,3,1) occ(32,3,14) occ(36,3,12) occ(39,3,7) occ(59,3,9) occ(63,3,5) occ(69,3,4) occ(75,3,3) occ(81,3,6) occ(87,3,11) occ(129,3,10) occ(6,4,8) occ(10,4,6) occ(24,4,11) occ(30,4,12) occ(44,4,5) occ(51,4,14) occ(61,4,7) occ(67,4,2) occ(79,4,4) occ(125,4,13) occ(133,4,9) occ(145,4,1) occ(149,4,3) occ(4,5,6) occ(20,5,14) occ(23,5,1) occ(26,5,13) occ(46,5,3) occ(57,5,10) occ(65,5,4) occ(77,5,2) occ(82,5,9) occ(89,5,12) occ(131,5,11) occ(135,5,7) occ(144,5,8) occ(151,5,5) occ(22,6,12) occ(28,6,11) occ(48,6,1) occ(53,6,13) occ(68,6,3) occ(84,6,7) occ(123,6,14) occ(137,6,5) occ(142,6,6) occ(143,6,2) occ(146,6,10) occ(21,7,2) occ(50,7,3) occ(55,7,11) occ(66,7,5) occ(80,7,8) occ(86,7,9) occ(91,7,13) occ(92,7,14) occ(121,7,12) occ(141,7,4) occ(153,7,6) occ(70,8,2) occ(90,8,12) occ(97,8,13) occ(119,8,10) occ(139,8,6) occ(140,8,5) occ(148,8,11) occ(155,8,8) occ(19,9,1) occ(52,9,2) occ(64,9,6) occ(74,9,3) occ(78,9,7) occ(88,9,10) occ(93,9,14) occ(94,9,13) occ(117,9,12) occ(118,9,5) occ(136,9,4) occ(150,9,9) occ(168,9,8) occ(5,10,13) occ(17,10,3) occ(62,10,4) occ(72,10,1) occ(76,10,5) occ(95,10,12) occ(99,10,14) occ(134,10,2) occ(138,10,6) occ(152,10,11) occ(157,10,9) occ(162,10,8) occ(166,10,10) occ(7,11,11) occ(15,11,5) occ(54,11,3) occ(60,11,2) occ(96,11,14) occ(104,11,12) occ(112,11,8) occ(115,11,13) occ(116,11,6) occ(120,11,4) occ(160,11,10) occ(170,11,7) occ(13,12,7) occ(58,12,4) occ(98,12,12) occ(101,12,13) occ(102,12,14) occ(109,12,11) occ(126,12,2) occ(132,12,1) occ(154,12,10) occ(159,12,8) occ(164,12,9) occ(169,12,3) occ(9,13,10) occ(56,13,2) occ(105,13,12) occ(106,13,13) occ(110,13,9) occ(113,13,14) occ(114,13,7) occ(122,13,3) occ(128,13,4) occ(158,13,11) occ(163,13,5) occ(167,13,1) occ(172,13,8) occ(173,13,6) occ(11,14,8) occ(100,14,13) occ(103,14,14) occ(107,14,10) occ(108,14,11) occ(111,14,12) occ(124,14,1) occ(130,14,2) occ(156,14,9) occ(161,14,7) occ(165,14,3) occ(171,14,4) occ(174,14,6)
Optimization: -175
Answer: 14
occ(1,6,8) occ(1,14,5) occ(1,11,9) occ(1,4,10) occ(1,10,7) occ(1,8,3) occ(1,12,5) occ(1,12,6) occ(1,8,7) occ(2,6,4) occ(3,9,11) coverage(176) occ(13,1,10) occ(14,1,3) occ(18,1,1) occ(19,1,13) occ(23,1,9) occ(24,1,2) occ(28,1,6) occ(31,1,7) occ(34,1,11) occ(96,1,12) occ(101,1,4) occ(105,1,8) occ(15,2,12) occ(20,2,3) occ(21,2,11) occ(25,2,7) occ(26,2,4) occ(29,2,9) occ(30,2,8) occ(33,2,5) occ(36,2,13) occ(94,2,10) occ(98,2,14) occ(99,2,2) occ(103,2,6) occ(8,3,6) occ(11,3,11) occ(12,3,4) occ(16,3,2) occ(17,3,14) occ(22,3,1) occ(32,3,10) occ(35,3,7) occ(47,3,13) occ(74,3,3) occ(92,3,8) occ(100,3,12) occ(107,3,9) occ(6,4,4) occ(9,4,13) occ(27,4,8) occ(37,4,5) occ(38,4,14) occ(45,4,11) occ(54,4,6) occ(72,4,1) occ(97,4,3) occ(110,4,12) occ(4,5,6) occ(10,5,5) occ(40,5,12) occ(43,5,9) occ(49,5,14) occ(52,5,8) occ(76,5,4) occ(87,5,3) occ(90,5,7) occ(95,5,1) occ(102,5,11) occ(106,5,13) occ(109,5,10) occ(7,6,14) occ(39,6,6) occ(50,6,10) occ(51,6,12) occ(56,6,5) occ(60,6,3) occ(70,6,2) occ(85,6,1) occ(88,6,9) occ(108,6,11) occ(112,6,13) occ(113,6,7) occ(41,7,8) occ(42,7,13) occ(53,7,14) occ(62,7,5) occ(78,7,3) occ(82,7,7) occ(86,7,11) occ(89,7,4) occ(93,7,2) occ(104,7,12) occ(111,7,9) occ(144,7,10) occ(149,7,6) occ(5,8,13) occ(48,8,11) occ(58,8,4) occ(68,8,1) occ(80,8,5) occ(83,8,2) occ(84,8,9) occ(114,8,14) occ(115,8,6) occ(142,8,12) occ(146,8,8) occ(174,8,10) occ(44,9,14) occ(55,9,13) occ(64,9,4) occ(71,9,1) occ(91,9,3) occ(117,9,8) occ(136,9,12) occ(137,9,2) occ(141,9,6) occ(147,9,7) occ(148,9,10) occ(151,9,5) occ(162,9,9) occ(46,10,12) occ(66,10,2) occ(69,10,3) occ(81,10,1) occ(116,10,13) occ(119,10,6) occ(134,10,14) occ(139,10,4) occ(140,10,11) occ(145,10,5) occ(158,10,8) occ(172,10,9) occ(175,10,10) occ(57,11,12) occ(67,11,5) occ(73,11,2) occ(79,11,3) occ(121,11,4) occ(135,11,1) occ(138,11,13) occ(143,11,7) occ(150,11,11) occ(153,11,6) occ(160,11,10) occ(164,11,8) occ(165,11,14) occ(59,12,10) occ(77,12,1) occ(118,12,14) occ(123,12,2) occ(124,12,9) occ(127,12,4) occ(132,12,13) occ(156,12,7) occ(167,12,12) occ(170,12,8) occ(173,12,11) occ(61,13,8) occ(65,13,4) occ(75,13,3) occ(122,13,11) occ(128,13,12) occ(129,13,6) occ(133,13,2) occ(152,13,10) occ(155,13,5) occ(159,13,9) occ(163,13,13) occ(166,13,7) occ(169,13,14) occ(63,14,6) occ(120,14,13) occ(125,14,3) occ(126,14,10) occ(130,14,14) occ(131,14,4) occ(154,14,8) occ(157,14,7) occ(161,14,11) occ(168,14,9) occ(171,14,12)
Optimization: -176
Answer: 15
occ(1,6,8) occ(1,14,5) occ(1,11,9) occ(1,4,10) occ(1,10,7) occ(1,8,3) occ(1,12,5) occ(1,12,6) occ(1,8,7) occ(2,6,4) occ(3,9,11) coverage(177) occ(12,1,4) occ(18,1,3) occ(26,1,5) occ(30,1,9) occ(36,1,14) occ(42,1,13) occ(149,1,8) occ(157,1,12) occ(161,1,10) occ(165,1,6) occ(170,1,11) occ(174,1,7) occ(10,2,2) occ(16,2,5) occ(20,2,1) occ(24,2,3) occ(28,2,7) occ(34,2,12) occ(40,2,11) occ(147,2,6) occ(151,2,10) occ(155,2,14) occ(163,2,8) occ(167,2,4) occ(168,2,13) occ(172,2,9) occ(14,3,3) occ(32,3,10) occ(38,3,13) occ(44,3,14) occ(90,3,9) occ(99,3,5) occ(103,3,1) occ(118,3,7) occ(145,3,8) occ(153,3,12) occ(159,3,11) occ(169,3,2) occ(176,3,6) occ(8,4,1) occ(22,4,2) occ(23,4,6) occ(50,4,12) occ(64,4,13) occ(88,4,7) occ(92,4,11) occ(101,4,3) occ(116,4,9) occ(120,4,5) occ(166,4,14) occ(171,4,4) occ(175,4,8) occ(6,5,3) occ(25,5,8) occ(46,5,13) occ(52,5,10) occ(66,5,11) occ(86,5,5) occ(97,5,4) occ(105,5,2) occ(114,5,7) occ(143,5,9) occ(164,5,12) occ(173,5,6) occ(21,6,7) occ(29,6,5) occ(33,6,1) occ(48,6,11) occ(62,6,14) occ(68,6,13) occ(75,6,12) occ(94,6,10) occ(95,6,2) occ(109,6,3) occ(112,6,9) occ(122,6,6) occ(4,7,2) occ(19,7,5) occ(27,7,7) occ(31,7,3) occ(54,7,9) occ(70,7,11) occ(73,7,10) occ(77,7,14) occ(84,7,4) occ(96,7,12) occ(107,7,1) occ(113,7,6) occ(141,7,8) occ(162,7,13) occ(35,8,2) occ(56,8,11) occ(60,8,13) occ(71,8,8) occ(72,8,9) occ(78,8,6) occ(79,8,12) occ(93,8,1) occ(98,8,14) occ(110,8,10) occ(111,8,4) occ(124,8,5) occ(17,9,4) occ(39,9,1) occ(65,9,2) occ(69,9,6) occ(76,9,8) occ(81,9,10) occ(82,9,3) occ(87,9,5) occ(108,9,12) occ(115,9,7) occ(131,9,13) occ(139,9,9) occ(160,9,14) occ(37,10,3) occ(58,10,12) occ(67,10,4) occ(74,10,10) occ(80,10,5) occ(83,10,8) occ(91,10,2) occ(100,10,13) occ(106,10,14) occ(117,10,9) occ(126,10,6) occ(133,10,11) occ(5,11,10) occ(15,11,5) occ(41,11,2) occ(59,11,3) occ(63,11,1) occ(85,11,6) occ(89,11,4) occ(104,11,12) occ(119,11,11) occ(129,11,14) occ(134,11,7) occ(137,11,8) occ(158,11,13) occ(7,12,8) occ(13,12,3) occ(47,12,2) occ(53,12,1) occ(102,12,14) occ(123,12,12) occ(128,12,7) occ(135,12,10) occ(136,12,9) occ(144,12,13) occ(152,12,11) occ(11,13,5) occ(43,13,1) occ(51,13,3) occ(57,13,4) occ(61,13,2) occ(121,13,10) occ(127,13,13) occ(132,13,6) occ(138,13,7) occ(142,13,11) occ(148,13,12) occ(156,13,14) occ(9,14,7) occ(45,14,3) occ(49,14,1) occ(55,14,2) occ(125,14,11) occ(130,14,8) occ(140,14,9) occ(146,14,14) occ(150,14,10) occ(154,14,12)
Optimization: -177
Answer: 16
occ(1,6,8) occ(1,14,5) occ(1,11,9) occ(1,4,10) occ(1,10,7) occ(1,8,3) occ(1,12,5) occ(1,12,6) occ(1,8,7) occ(2,6,4) occ(3,9,11) coverage(178) occ(8,1,2) occ(54,1,3) occ(55,1,7) occ(61,1,10) occ(69,1,12) occ(73,1,8) occ(87,1,13) occ(131,1,9) occ(149,1,4) occ(155,1,5) occ(167,1,11) occ(6,2,4) occ(52,2,1) occ(53,2,9) occ(56,2,5) occ(59,2,8) occ(63,2,12) occ(67,2,14) occ(71,2,10) occ(89,2,11) occ(129,2,7) occ(147,2,6) occ(151,2,2) occ(157,2,3) occ(169,2,13) occ(10,3,1) occ(50,3,3) occ(51,3,11) occ(57,3,6) occ(60,3,2) occ(75,3,7) occ(85,3,12) occ(91,3,13) occ(127,3,9) occ(133,3,8) occ(153,3,4) occ(159,3,5) occ(165,3,10) occ(177,3,14) occ(4,4,3) occ(48,4,1) occ(58,4,4) occ(65,4,13) occ(77,4,5) occ(81,4,9) occ(93,4,11) occ(94,4,2) occ(135,4,6) occ(145,4,7) occ(163,4,8) occ(171,4,14) occ(175,4,12) occ(12,5,2) occ(44,5,4) occ(49,5,12) occ(62,5,1) occ(79,5,7) occ(83,5,11) occ(98,5,3) occ(103,5,5) occ(108,5,10) occ(112,5,14) occ(119,5,13) occ(125,5,8) occ(143,5,9) occ(161,5,6) occ(42,6,6) occ(46,6,2) occ(47,6,14) occ(92,6,3) occ(95,6,10) occ(96,6,1) occ(100,6,5) occ(104,6,9) occ(110,6,12) occ(121,6,11) occ(137,6,7) occ(173,6,13) occ(14,7,1) occ(27,7,3) occ(40,7,8) occ(64,7,2) occ(101,7,6) occ(102,7,7) occ(105,7,4) occ(106,7,11) occ(113,7,12) occ(114,7,13) occ(117,7,14) occ(123,7,9) occ(141,7,10) occ(170,7,5) occ(25,8,1) occ(29,8,5) occ(36,8,11) occ(45,8,13) occ(90,8,4) occ(97,8,9) occ(107,8,6) occ(111,8,10) occ(139,8,8) occ(150,8,14) occ(174,8,2) occ(16,9,2) occ(38,9,9) occ(66,9,1) occ(82,9,5) occ(86,9,3) occ(99,9,7) occ(109,9,8) occ(115,9,13) occ(116,9,14) occ(152,9,12) occ(164,9,10) occ(168,9,6) occ(172,9,4) occ(5,10,9) occ(18,10,4) occ(23,10,2) occ(31,10,6) occ(34,10,10) occ(43,10,12) occ(80,10,3) occ(88,10,5) occ(148,10,13) occ(154,10,14) occ(166,10,8) occ(176,10,1) occ(7,11,7) occ(19,11,3) occ(28,11,6) occ(32,11,8) occ(68,11,2) occ(78,11,5) occ(84,11,4) occ(118,11,13) occ(128,11,10) occ(136,11,12) occ(162,11,11) occ(9,12,9) occ(15,12,4) occ(20,12,3) occ(21,12,1) occ(26,12,8) occ(33,12,7) occ(41,12,11) occ(74,12,2) occ(126,12,12) occ(138,12,10) occ(146,12,14) occ(156,12,13) occ(13,13,6) occ(17,13,2) occ(22,13,5) occ(30,13,7) occ(37,13,8) occ(70,13,1) occ(76,13,4) occ(120,13,14) occ(124,13,10) occ(130,13,9) occ(134,13,13) occ(142,13,11) occ(160,13,12) occ(11,14,8) occ(24,14,7) occ(35,14,6) occ(39,14,10) occ(72,14,3) occ(122,14,12) occ(132,14,11) occ(140,14,9) occ(144,14,13) occ(158,14,14)
Optimization: -178
Answer: 17
occ(1,6,8) occ(1,14,5) occ(1,11,9) occ(1,4,10) occ(1,10,7) occ(1,8,3) occ(1,12,5) occ(1,12,6) occ(1,8,7) occ(2,6,4) occ(3,9,11) coverage(179) occ(48,1,6) occ(52,1,4) occ(55,1,7) occ(61,1,10) occ(62,1,3) occ(69,1,12) occ(87,1,13) occ(149,1,8) occ(155,1,5) occ(167,1,11) occ(46,2,4) occ(53,2,9) occ(58,2,2) occ(59,2,8) occ(63,2,12) occ(64,2,1) occ(67,2,14) occ(71,2,10) occ(77,2,5) occ(89,2,11) occ(147,2,6) occ(153,2,7) occ(157,2,3) occ(169,2,13) occ(50,3,5) occ(51,3,11) occ(54,3,3) occ(57,3,6) occ(60,3,4) occ(73,3,8) occ(79,3,7) occ(85,3,12) occ(91,3,13) occ(96,3,2) occ(151,3,9) occ(165,3,10) occ(177,3,14) occ(44,4,5) occ(56,4,1) occ(65,4,13) occ(66,4,2) occ(75,4,6) occ(81,4,9) occ(93,4,11) occ(133,4,3) occ(145,4,7) occ(159,4,4) occ(163,4,8) occ(171,4,14) occ(175,4,12) occ(4,5,2) occ(42,5,7) occ(49,5,12) occ(83,5,11) occ(94,5,1) occ(98,5,3) occ(108,5,10) occ(112,5,14) occ(119,5,13) occ(125,5,8) occ(129,5,4) occ(135,5,5) occ(143,5,9) occ(161,5,6) occ(47,6,14) occ(68,6,1) occ(92,6,3) occ(95,6,10) occ(100,6,5) occ(104,6,9) occ(110,6,12) occ(121,6,11) occ(127,6,6) occ(131,6,2) occ(137,6,7) occ(173,6,13) occ(6,7,1) occ(40,7,8) occ(70,7,3) occ(101,7,6) occ(102,7,7) occ(105,7,4) occ(106,7,11) occ(113,7,12) occ(114,7,13) occ(117,7,14) occ(123,7,9) occ(141,7,10) occ(170,7,5) occ(25,8,5) occ(36,8,11) occ(45,8,13) occ(72,8,1) occ(90,8,4) occ(97,8,9) occ(107,8,6) occ(111,8,10) occ(139,8,8) occ(150,8,14) occ(174,8,2) occ(8,9,2) occ(14,9,1) occ(38,9,9) occ(86,9,3) occ(99,9,7) occ(103,9,5) occ(109,9,8) occ(115,9,13) occ(116,9,14) occ(152,9,12) occ(164,9,10) occ(168,9,6) occ(172,9,4) occ(5,10,9) occ(12,10,3) occ(23,10,4) occ(27,10,6) occ(34,10,10) occ(43,10,12) occ(74,10,2) occ(88,10,5) occ(148,10,13) occ(154,10,14) occ(166,10,8) occ(176,10,1) occ(7,11,7) occ(10,11,1) occ(16,11,2) occ(28,11,6) occ(31,11,5) occ(32,11,8) occ(84,11,4) occ(118,11,13) occ(128,11,10) occ(136,11,12) occ(162,11,11) occ(178,11,3) occ(9,12,9) occ(15,12,4) occ(21,12,3) occ(26,12,8) occ(29,12,7) occ(41,12,11) occ(76,12,1) occ(82,12,2) occ(126,12,12) occ(138,12,10) occ(146,12,14) occ(156,12,13) occ(13,13,6) occ(17,13,2) occ(18,13,1) occ(22,13,5) occ(30,13,7) occ(33,13,4) occ(37,13,8) occ(78,13,3) occ(120,13,14) occ(124,13,10) occ(130,13,9) occ(134,13,13) occ(142,13,11) occ(160,13,12) occ(11,14,8) occ(19,14,4) occ(20,14,3) occ(24,14,7) occ(35,14,6) occ(39,14,10) occ(80,14,1) occ(122,14,12) occ(132,14,11) occ(140,14,9) occ(144,14,13) occ(158,14,14)
Optimization: -179
Answer: 18
occ(1,6,8) occ(1,14,5) occ(1,11,9) occ(1,4,10) occ(1,10,7) occ(1,8,3) occ(1,12,5) occ(1,12,6) occ(1,8,7) occ(2,6,4) occ(3,9,11) coverage(180) occ(26,1,3) occ(37,1,4) occ(43,1,7) occ(47,1,11) occ(56,1,12) occ(62,1,9) occ(125,1,2) occ(128,1,6) occ(131,1,5) occ(132,1,10) occ(137,1,8) occ(142,1,13) occ(22,2,2) occ(28,2,5) occ(39,2,6) occ(45,2,9) occ(49,2,13) occ(60,2,11) occ(123,2,4) occ(129,2,3) occ(130,2,8) occ(133,2,7) occ(134,2,12) occ(138,2,14) occ(139,2,10) occ(24,3,4) occ(30,3,7) occ(35,3,3) occ(41,3,8) occ(54,3,11) occ(58,3,13) occ(64,3,10) occ(80,3,6) occ(126,3,5) occ(127,3,1) occ(135,3,9) occ(140,3,12) occ(144,3,14) occ(20,4,3) occ(32,4,9) occ(33,4,1) occ(51,4,14) occ(78,4,8) occ(82,4,4) occ(111,4,6) occ(121,4,5) occ(136,4,13) occ(141,4,11) occ(146,4,12) occ(164,4,7) occ(170,4,2) occ(18,5,1) occ(31,5,3) occ(52,5,10) occ(66,5,11) occ(70,5,9) occ(84,5,2) occ(89,5,12) occ(109,5,8) occ(119,5,7) occ(124,5,6) occ(143,5,13) occ(148,5,14) occ(162,5,5) occ(168,5,4) occ(16,6,3) occ(34,6,10) occ(53,6,13) occ(72,6,11) occ(76,6,9) occ(87,6,14) occ(113,6,5) occ(150,6,12) occ(160,6,7) occ(166,6,6) occ(172,6,1) occ(178,6,2) occ(4,7,2) occ(7,7,7) occ(29,7,4) occ(50,7,11) occ(68,7,10) occ(86,7,1) occ(91,7,13) occ(107,7,9) occ(117,7,8) occ(122,7,5) occ(145,7,12) occ(152,7,14) occ(161,7,6) occ(174,7,3) occ(5,8,9) occ(9,8,5) occ(14,8,2) occ(36,8,11) occ(55,8,14) occ(74,8,10) occ(85,8,13) occ(115,8,6) occ(154,8,12) occ(158,8,8) occ(159,8,4) occ(176,8,1) occ(6,9,1) occ(13,9,6) occ(27,9,5) occ(38,9,9) occ(48,9,12) occ(88,9,2) occ(93,9,14) occ(105,9,8) occ(120,9,4) occ(147,9,13) occ(156,9,10) occ(163,9,7) occ(11,10,4) occ(12,10,3) occ(23,10,2) occ(40,10,11) occ(57,10,13) occ(79,10,12) occ(83,10,14) occ(100,10,1) occ(103,10,10) occ(118,10,6) occ(153,10,9) occ(157,10,5) occ(179,10,8) occ(8,11,2) occ(15,11,5) occ(25,11,4) occ(46,11,11) occ(77,11,14) occ(90,11,1) occ(95,11,13) occ(102,11,3) occ(116,11,8) occ(149,11,12) occ(155,11,7) occ(165,11,6) occ(177,11,10) occ(10,12,4) occ(21,12,1) occ(42,12,12) occ(59,12,14) occ(69,12,7) occ(81,12,13) occ(92,12,3) occ(98,12,2) occ(101,12,11) occ(112,12,9) occ(151,12,10) occ(171,12,8) occ(17,13,4) occ(44,13,10) occ(61,13,12) occ(65,13,8) occ(71,13,9) occ(75,13,13) occ(94,13,1) occ(97,13,14) occ(104,13,2) occ(108,13,6) occ(114,13,7) occ(167,13,5) occ(175,13,11) occ(19,14,2) occ(63,14,10) occ(67,14,6) occ(73,14,11) occ(96,14,3) occ(99,14,12) occ(106,14,4) occ(110,14,8) occ(169,14,7) occ(173,14,9)
Optimization: -180
*** Info : (clingo): INTERRUPTED by signal!
SATISFIABLE

TIME LIMIT   : 1
Models       : 18+
  Optimum    : unknown
Optimization : -180
Calls        : 1
Time         : 300.000s (Solving: 285.47s 1st Model: 0.01s Unsat: 0.00s)
CPU Time     : 300.002s
